#######################################################
#CASTEP cell file: al120.cell
#Created using the Atomic Simulation Environment (ASE)#
#######################################################

# start MD with slightly noisy positions
positions_noise 0.1 Ang
FIX_ALL_CELL True
FIX_COM      True

%BLOCK LATTICE_CART
 9.610056  0.000000  0.000000
-4.805028  8.322552  0.000000
 0.000000  0.000000 13.116254
%ENDBLOCK LATTICE_CART

%BLOCK POSITIONS_ABS
Al  0.000000  0.000000  1.939946
Al -0.000002  2.774185  0.246100
Al -0.000002  2.774185  4.125993
# Al  2.402516  1.387091  2.432134  #  <- removed
Al  2.402516  1.387091  6.312027
Al  0.000000  0.000000  4.618181
Al  0.000000  0.000000  8.498073
Al -0.000002  2.774185  6.804227
Al -0.000002  2.774185 10.684120
Al  2.402516  1.387091  8.990261
Al  2.402516  1.387091 12.870154
Al  0.000000  0.000000 11.176308
# O  1.471040  0.000000  3.279063    # <- this Oxygen is removed
O  3.138036  0.113133  1.093017
O -0.735520  1.273958  3.279063
O  1.666994  2.887318  3.279063
O  3.138036  2.661049  1.093017
O  0.931476  1.387091  1.093017
O  3.873557  1.387091  7.651144
O  0.735518  1.500227  5.465110
O  1.666996  2.661049  7.651144
O  1.666996  0.113133  7.651144
O  0.735518  4.048143  5.465110
O -1.471043  2.774185  5.465110
O  1.471038  2.774185 12.023237
O -1.666994  2.887318  9.837191
O -0.735522  4.048143 12.023237
O -0.735522  1.500227 12.023237
O  0.735520  1.273958  9.837191
O  3.333988  0.000000  9.837191
Al -2.402514  4.161276  1.939946
Al -2.402516  6.935461  0.246100
Al -2.402516  6.935461  4.125993
Al  0.000002  5.548367  2.432134
Al  0.000002  5.548367  6.312027
Al -2.402514  4.161276  4.618181
Al -2.402514  4.161276  8.498073
Al -2.402516  6.935461  6.804227
Al -2.402516  6.935461 10.684120
Al  0.000002  5.548367  8.990261
Al  0.000002  5.548367 12.870154
Al -2.402514  4.161276 11.176308
O -0.931474  4.161276  3.279063
O  0.735522  4.274409  1.093017
O -3.138034  5.435234  3.279063
O -0.735520  7.048594  3.279063
O  0.735522  6.822325  1.093017
O -1.471038  5.548367  1.093017
O  1.471043  5.548367  7.651144
O -1.666996  5.661503  5.465110
O -0.735518  6.822325  7.651144
O -0.735518  4.274409  7.651144
O -1.666996  8.209419  5.465110
O -3.873557  6.935461  5.465110
O -0.931476  6.935461 12.023237
O -4.069508  7.048594  9.837191
O -3.138036  8.209419 12.023237
O -3.138036  5.661503 12.023237
O -1.666994  5.435234  9.837191
O  0.931474  4.161276  9.837191
Al  4.805028  0.000000  1.939946
Al  4.805026  2.774185  0.246100
Al  4.805026  2.774185  4.125993
Al  7.207544  1.387091  2.432134
Al  7.207544  1.387091  6.312027
Al  4.805028  0.000000  4.618181
Al  4.805028  0.000000  8.498073
Al  4.805026  2.774185  6.804227
Al  4.805026  2.774185 10.684120
Al  7.207544  1.387091  8.990261
Al  7.207544  1.387091 12.870154
Al  4.805028  0.000000 11.176308
O  6.276068  0.000000  3.279063
O  7.943064  0.113133  1.093017
O  4.069508  1.273958  3.279063
O  6.472022  2.887318  3.279063
O  7.943064  2.661049  1.093017
O  5.736504  1.387091  1.093017
O  8.678585  1.387091  7.651144
O  5.540546  1.500227  5.465110
O  6.472024  2.661049  7.651144
O  6.472024  0.113133  7.651144
O  5.540546  4.048143  5.465110
O  3.333985  2.774185  5.465110
O  6.276066  2.774185 12.023237
O  3.138034  2.887318  9.837191
O  4.069506  4.048143 12.023237
O  4.069506  1.500227 12.023237
O  5.540548  1.273958  9.837191
O  8.139016  0.000000  9.837191
Al  2.402514  4.161276  1.939946
Al  2.402512  6.935461  0.246100
Al  2.402512  6.935461  4.125993
Al  4.805030  5.548367  2.432134
Al  4.805030  5.548367  6.312027
Al  2.402514  4.161276  4.618181
Al  2.402514  4.161276  8.498073
Al  2.402512  6.935461  6.804227
Al  2.402512  6.935461 10.684120
Al  4.805030  5.548367  8.990261
Al  4.805030  5.548367 12.870154
Al  2.402514  4.161276 11.176308
O  3.873554  4.161276  3.279063
O  5.540550  4.274409  1.093017
O  1.666994  5.435234  3.279063
O  4.069508  7.048594  3.279063
O  5.540550  6.822325  1.093017
O  3.333990  5.548367  1.093017
O  6.276071  5.548367  7.651144
O  3.138032  5.661503  5.465110
O  4.069510  6.822325  7.651144
O  4.069510  4.274409  7.651144
O  3.138032  8.209419  5.465110
O  0.931471  6.935461  5.465110
O  3.873552  6.935461 12.023237
O  0.735520  7.048594  9.837191
O  1.666992  8.209419 12.023237
O  1.666992  5.661503 12.023237
O  3.138034  5.435234  9.837191
O  5.736502  4.161276  9.837191
%ENDBLOCK POSITIONS_ABS


