#######################################################
#CASTEP cell file: liqSi_250.cell
#Created using the Atomic Simulation Environment (ASE)#
#######################################################

%BLOCK LATTICE_CART
17.211208  0.000000  0.000000
 0.000000 17.211208  0.000000
 0.000000  0.000000 17.211208
%ENDBLOCK LATTICE_CART

%BLOCK POSITIONS_ABS
Si  0.771382  1.305075  0.935493
Si  3.679701  0.464708  1.041017
Si  1.344116  3.196254  3.314909
Si  3.383017  3.547211  1.279298
Si  5.415402  2.294347  3.857862
Si  7.064009  1.117495  2.248139
Si  5.531250  1.695670  0.358373
Si  0.377844  5.215818  1.587573
Si  2.494059  6.162365  1.131062
Si  6.106986  7.914393  0.916485
Si  4.666692  4.484185  3.585325
Si  4.570761  7.523325  2.531268
Si  6.935893  4.545950  3.440887
Si  7.975217  7.237969  4.388506
Si  0.778681  9.330974  2.099298
Si  3.972083 10.474191  3.908741
Si  3.987261 12.991297  3.818580
Si  2.892839  8.831421  3.008810
Si  8.111583  8.964990  2.463944
Si  6.063303  8.780725  3.913649
Si  2.274040 14.430974  3.284686
Si  1.888601 16.250977  1.377824
Si  0.432402 13.325567  2.031689
Si  5.070141 15.789741  1.522338
Si  7.298259 16.970942  4.122500
Si  5.634356 15.650267  3.869272
Si  4.719520 13.399205  1.459194
Si  6.547519 13.548066  3.936122
Si  7.533016 13.515710  1.320502
Si  2.978469  3.247401  4.712326
Si  3.601358  2.792850  8.566638
Si  1.275836  3.322481  7.316111
Si  2.003358  1.476762  6.100248
Si  6.144423  1.493020  5.910774
Si  6.313868  2.852284  7.747998
Si  8.482938  3.033714  8.663630
Si  0.887964  6.405491  7.726928
Si  1.139460  8.560873  8.396020
Si  2.390063  4.987652  6.635615
Si  3.643932  6.568786  4.529020
Si  4.382171  4.883566  7.531970
Si  1.589141  5.534557  4.478405
Si  6.792023  8.027692  7.924381
Si  8.071820  6.192611  7.572541
Si  7.344931  4.854892  5.840459
Si  5.747604  6.827413  6.037245
Si  6.316187  4.907189  8.666993
Si  3.641858 11.640376  8.315631
Si  0.867686  9.974244  4.499668
Si  1.741639 10.293631  7.037450
Si  2.722549 12.079652  6.067681
Si  0.635609 12.745851  8.598537
Si  5.290302  9.369430  6.061927
Si  6.989348 12.766730  8.173511
Si  7.703052 10.866192  4.626150
Si  7.408259 10.776748  7.099027
Si  2.008212 14.875672  7.935995
Si  2.256085 15.186356  5.710502
Si  8.393591 13.133865  4.815085
Si  7.175207 16.848527  6.912861
Si  4.570411 17.005264  5.445239
Si  1.913532  3.292642 10.146632
Si  0.728319  0.268798 11.576237
Si  0.555332  3.749214 11.850503
Si  7.919019  0.804281  9.050638
Si  7.923507  3.558050 13.005917
Si  5.854765  4.232316 12.134197
Si  4.410275  5.959221 11.426856
Si  0.581151  5.749795 11.088028
Si  2.559851  5.545961  9.795989
Si  2.547265  8.152089  9.918235
Si  1.089768  7.754406 12.169141
Si  7.111849  5.721623 10.682384
Si  5.614177  7.728630 10.021183
Si  6.398051  7.195675 12.769112
Si  1.947749 11.164262 10.395028
Si  4.033834  9.279551 12.036812
Si  6.777096  9.266014 12.148271
Si  8.533700  9.167936  8.750782
Si  5.079595 10.862999 10.563230
Si  6.704473 11.986961 10.173782
Si  0.992943 16.709151  9.198939
Si  3.678394 14.214063  9.175745
Si  3.171045 14.040586 11.784449
Si  3.901922 15.738566 12.772257
Si  6.072756 14.791425  8.919939
Si  6.945044 14.172731 10.881370
Si  0.619363  1.028893 15.911733
Si  1.842293  2.812790 15.074628
Si  1.444972  3.336988 17.275288
Si  4.902659  2.899589 13.721885
Si  8.446061  1.480470 15.210658
Si  7.468315  3.618280 17.129541
Si  5.357637  4.249696 15.835303
Si  1.866376  6.485887 14.131691
Si  2.831977  8.264403 14.843248
Si  1.147859  8.355496 16.921084
Si  4.940893  8.096910 15.863707
Si  5.938347  6.333058 16.617966
Si  8.267574  7.289795 15.491214
Si  2.623914 10.752169 13.778640
Si  4.299644 12.154771 13.805339
Si  0.693866 11.739330 14.126127
Si  2.277940 10.615352 16.365525
Si  8.669661  9.540640 16.005833
Si  6.110040 11.151465 13.050279
Si  6.474990  9.333397 15.007602
Si  8.235502 11.500134 13.456968
Si  4.573340 11.715024 16.664474
Si  3.071717 15.603875 14.940125
Si  0.779357 16.278847 13.832122
Si  1.917938 13.589580 13.612319
Si  2.537330 13.715473 17.105876
Si  8.128023 16.253856 15.799690
Si  5.091685 16.668125 16.121131
Si  5.165866 14.164375 14.541792
Si  6.192457 16.157346 14.146490
Si  6.915607 13.103096 16.079304
Si 12.221553  1.991178  3.551603
Si  8.801834  2.866395  2.421103
Si 11.724678  0.550336  0.244959
Si 16.798829  1.674571  3.065950
Si 13.920739  3.279641  1.860860
Si  9.456281  5.119354  1.931100
Si 11.402005  6.132766  2.645581
Si 13.842313  5.524131  1.950030
Si 15.897264  7.199848  2.588727
Si 14.713681  7.753705  0.597941
Si  8.954366 11.721542  2.070807
Si  9.743889  9.592217  1.152311
Si 10.741412 12.953830  1.154263
Si 10.426332 12.432238  3.839592
Si 16.706690 11.467071  3.348522
Si 14.101635 11.402371  3.283559
Si 14.117672  9.099097  3.514483
Si 13.209938 11.517627  0.947846
Si 17.226032 11.312290  0.872007
Si 10.706778 16.177455  2.080383
Si 11.441072 17.221572  4.368866
Si  9.419364 14.866214  0.397909
Si 13.505964 14.685663  2.620808
Si 15.129498 13.990167  1.351745
Si 13.765599 15.960716  4.294226
Si 15.483850 16.904789  2.718909
Si 11.372392  2.907878  7.276288
Si  9.667065  3.439363  5.376623
Si  9.238806  1.902995  6.971784
Si 15.144774  4.427603  7.453769
Si 15.429012  3.951853  5.410322
Si 16.810536  2.229038  5.406117
Si 13.158993  1.401569  7.619445
Si 16.398157  2.459758  7.938121
Si 15.129171  0.503655  6.654737
Si 13.287550  3.409299  5.651612
Si 11.876654  7.365845  4.580903
Si  9.429921  5.791380  5.086768
Si 11.848018  5.160676  5.663275
Si 10.766898  7.174174  7.439375
Si 13.005063  7.294984  6.587068
Si 16.674280  8.081356  4.658761
Si 16.837475  6.069458  5.698695
Si 15.799246  7.563878  7.688632
Si 12.182510 12.474651  5.588768
Si  9.875768  9.718943  7.134962
Si  9.425198 12.285139  7.015978
Si  9.912393  9.171388  4.615697
Si 12.028099  9.673763  7.585374
Si 17.066499 12.470418  6.478451
Si 15.496917 11.082335  8.276425
Si 14.265112  9.371304  6.045176
Si 13.343057 11.485299  7.139346
Si  9.286207 17.040241  5.380510
Si 11.482047 16.849248  6.943080
Si 11.287392 14.556312  7.482356
Si 16.761301 16.298163  5.331063
Si 13.956995 13.459299  4.594530
Si 14.982445 14.708716  6.074500
Si 14.233476 14.480976  8.582921
Si 16.541848 13.668400  4.535819
Si  8.987270  2.779319 10.873226
Si 13.022790  1.939572 10.041652
Si 12.153906  3.101673 12.942165
Si 11.195211  1.036390 11.459061
Si 16.118409  1.383491 10.222759
Si 15.072021  3.018607 11.534264
Si 12.192264  4.617262  9.276705
Si 11.302618  7.169888  9.511204
Si 11.536229  4.783267 11.309591
Si  9.710051  5.034571 10.196471
Si  9.066982  6.861773 12.190294
Si 13.909156  5.141630 12.780961
Si 14.497830  7.725936 11.608514
Si 14.975712  5.507417 10.913751
Si 16.379133  5.847882  9.151579
Si 13.836694  6.511835  8.842010
Si 12.513784  9.071297 11.718979
Si  9.877959 11.620355 11.726688
Si 12.598156 11.837303 12.749830
Si  9.165568  8.854100 11.274917
Si 11.726695 11.925844  9.224051
Si 16.349499  9.214099 10.015569
Si 16.617275 10.893038 12.078424
Si 15.157244 12.350542 11.018901
Si 14.240639  9.178373  9.121259
Si 13.182497 11.043562 10.511823
Si 12.718760 14.533477 10.573001
Si  9.356717 14.883352 10.904227
Si 11.666418 16.643598 12.876151
Si 10.161706 13.428122  9.226648
Si 11.193902 15.618200  9.488594
Si  9.636626 17.219596 10.239771
Si 15.003466 16.489110  9.751128
Si 17.219234 15.277209 11.866182
Si 16.161763 14.098826  9.823029
Si 15.291707 16.515732 12.835663
Si 12.648845  2.655523 17.114304
Si 10.644056  2.789514 16.462002
Si 14.127468  2.221153 14.573336
Si 16.034204  1.650773 13.348647
Si 13.805281  0.255287 16.600532
Si 15.088105  3.742858 15.806292
Si 17.149221  4.269987 14.952898
Si 11.857523  8.687953 16.496348
Si 11.614172  7.112398 14.354949
Si 10.810291  4.525266 14.619288
Si  8.925583  5.597600 16.639653
Si  9.627182  8.697871 13.750921
Si  8.781234  5.488731 13.692677
Si 11.215797  5.978552 16.206337
Si 16.865572  6.561719 15.541104
Si 13.509533  5.133813 17.020632
Si 14.974489  7.361605 14.228107
Si 15.799603  5.983105 17.274827
Si 10.763836 10.145848 14.604231
Si  9.102008 11.847088 15.472538
Si 15.070046 12.244395 13.424764
Si 15.247233  9.505979 13.202900
Si 16.227871 10.837872 15.513358
Si 13.249460  9.010603 14.281878
Si 14.626330 12.615642 16.719141
Si 14.091539  9.963981 16.816913
Si  9.740520 16.675185 14.259910
Si 11.366914 14.220574 13.106169
Si 11.148872 15.843187 15.912932
Si 12.811514 13.472985 15.635865
Si 10.446656 13.691685 15.376470
Si 12.936901 15.220464 17.086008
Si 13.456424 15.969271 14.431207
Si 15.580437 14.580286 14.150289
Si 16.266739 17.061882 17.286058
%ENDBLOCK POSITIONS_ABS

KPOINTS_MP_SPACING: 0.06 
